100
1000
200
200
200
199
198
198
198
197
196
196
196
195
194
194
194
194
193
192
192
191
191
190
190
190
190
189
189
189
189
189
189
188
188
186
186
185
184
183
183
182
182
180
179
179
179
179
178
177
177
177
177
177
176
175
174
174
174
174
172
172
171
170
170
170
169
169
166
166
166
166
166
165
164
164
164
163
163
162
161
160
160
160
159
159
159
159
158
158
157
157
155
154
154
154
152
152
152
151
151
150
